6532
5109
7066
802
8732
7865
1438
5804
9366
9253
7743
10022
7877
10056
6336
3794
7379
1806
8131
2665
10191
5701
946
4094
5434
5859
8835
1541
6344
8991
4207
5189
8708
6156
901
7582
3864
6323
4948
5356
6359
3519
8076
5104
2890
9683
7709
7437
1343
4855
5220
